Planet name: WASP-121b
Log10 lower boundary number density [cm^-3]: 12.49
Planet radius [R_J]: 2.2075
Planet mass [M_J]: 1.1824
Equilibrium temperature [K]: 2358.0
Orbital distance [AU]: 0.02544
Escape radius [R_p]: 1.50
He/H number ratio: 0.0851
2D approximate method: Rate/2 + Mdot/2
Parent star mass [M_sun]: 1.3521
Spectrum type: Power-law
Power-law index: -1.0
Use only EUV? False
[E_low,E_mid,E_high] = [ 13.60 , 123.98 , 1.24e3 ]
Log10 of X-ray luminosity [erg/s]: 29.46
Log10 of EUV luminosity [erg/s]: 30.42
Grid type: Mixed
Numerical flux: HLLC
Reconstruction scheme: PLM
Include He23S? True
Load IC? False
Do only PP: False
Force start: False
Stellar Teff [K]: 6459.0
Stellar radius [R_sun]: 1.458
Jlya escape-prob: True
Stellar Lya flux [erg/cm2/s]: 1.0e5
Lya stellar halfwidth [km/s]: 70
Deexc heat: True
Lya stellar boost [-]: 5
du_th [PLM,WENO3]: 0.5 1.0e-3
Solver: Newton 0.1
