# atomic_scalar_gj1132x0.01_kzz1e9
# H, He, He(2^3S) and electrons above a prescribed scalar base (T = 226.0 K, R_0 = 0.157692 R_J, p = 1.0e-6 bar), metal-free.
# Numerical flux: ROE, the HLLC flux does not reach the stationary root on
# this grid at this XUV level (L25 step 3); the Roe flux systematic
# against HLLC where both solve is Mdot and the He 10830 equivalent width
# lower by 0.3 to 0.6 per cent, the first cell colder by 6 to 7 per cent
# and denser by 6 to 8 per cent, and the mass-flux spread unchanged (L25
# memo).
Planet name: LHS1140b_atomic_scalar_gj1132x0.01_kzz1e9_HeH9.7
Log10 lower boundary number density [cm^-3]: 13.506
Planet radius [R_J]: 0.157692
Planet mass [M_J]: 0.0176220
Equilibrium temperature [K]: 226.0
Orbital distance [AU]: 0.0946
Escape radius [R_p]: 2.00
He/H number ratio: 9.7
2D approximate method: Mdot
Parent star mass [M_sun]: 0.1844
Spectrum type: Load from file..
Spectrum file: /nfs/mocafe/kiseon/RT_Codes/ExoAtmosphere/EXHALE_v1.00/LHS1140b/sed/lhs1140_sed_gj1132_at_b_xuv0p02.txt
Use only EUV? False
[E_low,E_mid,E_high] = [ 13.60 , 123.98 , 1.24e3 ]
Log10 of X-ray luminosity [erg/s]: 26.372
Log10 of EUV luminosity [erg/s]: 26.404
Grid type: Mixed
Numerical flux: ROE
Reconstruction scheme: PLM
Include He23S? True
Load IC? True
Do only PP: False
Force start: False
He_diffusion: True
Domain mode: Spherical
Outer radius [R_p]: 30.0
Stellar radius [R_sun]: 0.2159
Base BC: pressure 1.0
Resid tol: 5.0e-5
He_Kzz: 1.0e9
Solver: Newton
Restart intent: stationary
Secondary_ionization: Immediate
Well balanced: True
