# atomic_scalarCNO_gj1132_kzz1e9
# The same atomic wind over the same scalar base, plus the C, N and O reservoirs the photochemical column carries at the matching level.
Planet name: LHS1140b_atomic_scalarCNO_gj1132_kzz1e9_HeH2.13
Log10 lower boundary number density [cm^-3]: 13.506
Planet radius [R_J]: 0.157692
Planet mass [M_J]: 0.0176220
Equilibrium temperature [K]: 226.0
Orbital distance [AU]: 0.0946
Escape radius [R_p]: 2.00
He/H number ratio: 2.13
2D approximate method: Mdot
Parent star mass [M_sun]: 0.1844
Spectrum type: Load from file..
Spectrum file: ../../../sed/lhs1140_sed_gj1132_at_b.txt
Use only EUV? False
[E_low,E_mid,E_high] = [ 13.60 , 123.98 , 1.24e3 ]
Log10 of X-ray luminosity [erg/s]: 26.372
Log10 of EUV luminosity [erg/s]: 26.404
Grid type: Mixed
Numerical flux: HLLC
Reconstruction scheme: PLM
Include He23S? True
Load IC? True
Do only PP: False
Force start: False
He_diffusion: True
Domain mode: Spherical
Outer radius [R_p]: 30.0
Stellar radius [R_sun]: 0.2159
Base BC: pressure 1.0
Resid tol: 4.0e-6
He_Kzz: 1.0e9
Solver: Newton
Restart intent: stationary
Secondary_ionization: Immediate
Well balanced: True
