Planet name: HD189733b
Log10 lower boundary number density [cm^-3]: 14.00
Planet radius [R_J]: 1.193
Planet mass [M_J]: 1.237
Equilibrium temperature [K]: 1183.0
Orbital distance [AU]: 0.0330
Escape radius [R_p]: 2.00
He/H number ratio: 0.083333333
2D approximate method: Rate/2 + Mdot/2
Parent star mass [M_sun]: 0.940
Spectrum type: Power-law
Power-law index: -1.0
Use only EUV? False
[E_low,E_mid,E_high] = [ 13.60 , 123.98 , 1.24e3 ]
Log10 of X-ray luminosity [erg/s]: 28.420
Log10 of EUV luminosity [erg/s]: 28.680
Grid type: Mixed
Numerical flux: HLLC
Reconstruction scheme: PLM+WENO3
Include He23S? True
Load IC? True
Do only PP: False
Force start: False
Stellar Teff [K]: 4875
Stellar radius [R_sun]: 0.765
Jlya escape-prob: True
Stellar Lya flux [erg/cm2/s]: 2.0e4
Lya stellar halfwidth [km/s]: 70
Lya stellar boost [-]: 5
He_diffusion: True
He_Kzz: 1.0e9
He_metal_diffusion: True
du_th [PLM,WENO3]: 0.5 1.0e-3
Solver: Newton 5.0e-2
CFL: 0.3
Base grid [dr,cells]: 1.0e-4 100
