Planet name: HD189733b
Log10 lower boundary number density [cm^-3]: 14.00
Planet radius [R_J]: 1.193
Planet mass [M_J]: 1.237
Equilibrium temperature [K]: 1183.0
Orbital distance [AU]: 0.031
Escape radius [R_p]: 2.00
He/H number ratio: 0.083333333
2D approximate method: Rate/2 + Mdot/2
Parent star mass [M_sun]: 0.940
Spectrum type: Power-law
Power-law index: -1.0
Use only EUV? False
[E_low,E_mid,E_high] = [ 13.60 , 123.98 , 1.24e3 ]
Log10 of X-ray luminosity [erg/s]: 28.420
Log10 of EUV luminosity [erg/s]: 28.680
Grid type: Mixed
# Base grid of the stored results: the Mixed-grid default before 2026-09-19
Base grid [dr,cells]: 1.9999999494757503e-4 50
Numerical flux: HLLC
Reconstruction scheme: PLM+WENO3
Include He23S? False
Load IC? False
Do only PP: False
Force start: False
du_th [PLM,WENO3]: 0.5 1.0e-3
Solver: Newton
Stellar radius [R_sun]: 0.765
