Planet name: WASP-52b
Log10 lower boundary number density [cm^-3]: 12.7446
Planet radius [R_J]: 1.27
Planet mass [M_J]: 0.46
Equilibrium temperature [K]: 1304.0
Orbital distance [AU]: 0.0272
Escape radius [R_p]: 2.00
He/H number ratio: 0.020408
2D approximate method: Rate/2 + Mdot/2
Parent star mass [M_sun]: 0.87
Spectrum type: Load from file..
Spectrum file: /nfs/mocafe/kiseon/RT_Codes/Exoplanetary_Atmospheres/ATES/EXHALE/WASP-52b/eps_eri_sed_fxuv0p25.txt
Use only EUV? False
[E_low,E_mid,E_high] = [ 13.60 , 123.98 , 1.24e3 ]
Log10 of X-ray luminosity [erg/s]: 28.0
Log10 of EUV luminosity [erg/s]: 29.0
Grid type: Mixed
Numerical flux: HLLC
Reconstruction scheme: PLM
Include He23S? True
Load IC? False
Do only PP: False
Force start: False
Stellar Teff [K]: 5000.0
Stellar radius [R_sun]: 0.79
Jlya escape-prob: False
Stellar Lya flux [erg/cm2/s]: 37300.0
Lya stellar halfwidth [km/s]: 70
Deexc heat: True
Lya stellar boost [-]: 5
du_th [PLM,WENO3]: 0.5 1.0e-3
Solver: Newton
Base BC: pressure 1.0
IC mode: auto
