# atomic_photochem_gj1132x0.20_kzzprofile
# The atomic wind over the Photochem column handed across as a profile; the reservoir He/H is solved by the elemental-flux closure, so the composition is an output.
Planet name: LHS1140b_atomic_photochem_gj1132x0.20_kzzprofile_HeH9.7
Planet radius [R_J]: 0.157692
Planet mass [M_J]: 0.0176220
Equilibrium temperature [K]: 226.0
Orbital distance [AU]: 0.0946
Escape radius [R_p]: 2.00
He/H number ratio: 9.711073
2D approximate method: Mdot
Parent star mass [M_sun]: 0.1844
Spectrum type: Load from file..
Spectrum file: ../../../sed/lhs1140_sed_gj1132_at_b_xuv0p20.txt
Use only EUV? False
[E_low,E_mid,E_high] = [ 13.60 , 123.98 , 1.24e3 ]
Log10 of X-ray luminosity [erg/s]: 26.372
Log10 of EUV luminosity [erg/s]: 26.404
Grid type: Mixed
Numerical flux: HLLC
Reconstruction scheme: PLM
Include He23S? True
Load IC? True
Do only PP: False
Force start: False
He_diffusion: True
Domain mode: Spherical
Outer radius [R_p]: 30.0
Stellar radius [R_sun]: 0.2159
Base BC: pressure 1.0
Resid tol: 4.0e-6
Solver: Newton
Restart intent: stationary
Secondary_ionization: Immediate
Well balanced: True
Lower atmosphere profile: lower_atmosphere_profile.dat
