Planet name: HD209458b
Log10 lower boundary number density [cm^-3]: 14.00
Planet radius [R_J]: 1.401
Planet mass [M_J]: 0.720
Equilibrium temperature [K]: 1450.0
Orbital distance [AU]: 0.04707
Escape radius [R_p]: 2.00
He/H number ratio: 0.083333333
2D approximate method: Rate/2 + Mdot/2
Parent star mass [M_sun]: 1.200
Spectrum type: Load from file..
Spectrum file: ../../inputdata/sed/hd209458b_solar_whi2008.txt
Use only EUV? False
[E_low,E_mid,E_high] = [ 13.60 , 123.98 , 1.24e3 ]
# The two luminosity lines below are mandatory input, but the loaded SED
# supersedes their values: read_sed recomputes LX and LEUV by integrating
# the photon grid it builds from the file (bands split at E_mid).
Log10 of X-ray luminosity [erg/s]: 27.20
Log10 of EUV luminosity [erg/s]: 27.93
Grid type: Mixed
# Base grid of the stored results: the Mixed-grid default before 2026-09-19 (docs/lhs1140b_stationary_D1b_20260919.md)
Base grid [dr,cells]: 1.9999999494757503e-4 50
Numerical flux: HLLC
Reconstruction scheme: PLM+WENO3
Include He23S? True
Load IC? False
Do only PP: False
Force start: False
Stellar Teff [K]: 6065
Stellar radius [R_sun]: 1.155
Stellar Lya flux [erg/cm2/s]: 9.1e3
He_diffusion: True
He_Kzz: 1.0e9
He_metal_diffusion: True
du_th [PLM,WENO3]: 0.5 1.0e-3
Solver: Newton
