Planet name: HD209458b
Log10 lower boundary number density [cm^-3]: 14.00
Planet radius [R_J]: 1.401
Planet mass [M_J]: 0.720
Equilibrium temperature [K]: 1450.0
Orbital distance [AU]: 0.0480
Escape radius [R_p]: 2.00
He/H number ratio: 0.083333333
2D approximate method: Rate/2 + Mdot/2
Parent star mass [M_sun]: 1.200
Spectrum type: Power-law
Power-law index: -1.0
Use only EUV? False
[E_low,E_mid,E_high] = [ 13.60 , 123.98 , 1.24e3 ]
Log10 of X-ray luminosity [erg/s]: 27.20
Log10 of EUV luminosity [erg/s]: 27.93
Grid type: Mixed
Numerical flux: HLLC
Reconstruction scheme: PLM+WENO3
Include He23S? True
Load IC? False
Do only PP: False
Force start: False
Molecular chemistry: True
du_th [PLM,WENO3]: 0.5 1.0e-3
Solver: Newton 5.0e-2
Resid tol: 1.0e-5
Max steps: 150000
Stellar radius [R_sun]: 1.155
